language Essence 1.3

letting length be 10

$ vincular mix param file
$ mesh_avoidance = permutation + mesh pieces + vincular indeces

letting mixed_avoidance be { ( sequence(1,3,2), relation( (2, 3) ), {1} ) } 
